NAME: S076D2_20
COMMENT: 1413.73
VEHICLE: 15
TIME: 282.9528
DIMENSION: 76
CAPACITY: 160
DELIVERY_SECTION
0 0 0
1 1 32
2 1 8
3 1 1.6
4 1 1.6
5 1 0.8
6 2 16
7 2 1.6
8 2 1.6
9 2 1.6
10 2 1.2
11 3 16
12 3 1.6
13 3 1.6
14 3 1.6
15 3 1.2
16 4 16
17 4 1.6
18 4 0.4
19 5 32
20 5 8
21 5 1.6
22 5 1.6
23 5 1.6
24 5 1.6
25 5 0.6
26 6 16
27 6 1.6
28 6 1.6
29 6 0.8
30 7 32
31 7 1.6
32 7 0.4
33 8 16
34 8 1.6
35 8 0.4
36 9 32
37 9 8
38 9 1.6
39 9 1.6
40 9 0.8
41 10 16
42 10 1
43 11 32
44 11 8
45 11 1.6
46 11 0.4
47 12 16
48 12 1.6
49 12 1.4
50 13 32
51 13 1.6
52 13 1.4
53 14 16
54 14 1.6
55 14 0.4
56 15 32
57 15 8
58 15 1.6
59 15 1.6
60 15 1.6
61 15 1.2
62 16 16
63 16 1.6
64 16 1.6
65 16 0.8
66 17 16
67 17 1.6
68 17 1.6
69 17 1.6
70 17 1.2
71 18 16
72 18 1.6
73 18 1.6
74 18 1.6
75 18 1.6
76 18 0.6
77 19 32
78 19 8
79 19 1.6
80 19 1.6
81 19 1.6
82 19 1.6
83 19 0.6
84 20 16
85 20 1.6
86 20 1.6
87 20 1.6
88 20 1.2
89 21 16
90 21 1.6
91 21 1.6
92 21 1.6
93 21 1.6
94 21 0.6
95 22 16
96 22 8
97 22 1.6
98 22 1.6
99 22 1.6
100 22 0.2
101 23 32
102 23 8
103 23 1.6
104 23 1.6
105 23 1.6
106 23 1.2
107 24 16
108 24 8
109 25 32
110 25 1.6
111 25 1.4
112 26 32
113 26 1.6
114 26 1.4
115 27 32
116 27 8
117 27 1.6
118 27 1.4
119 28 16
120 28 8
121 28 1.6
122 28 0.4
123 29 32
124 29 8
125 29 1.6
126 29 1.4
127 30 32
128 30 8
129 30 1
130 31 32
131 31 1.6
132 31 1.6
133 31 1.6
134 31 1.6
135 31 0.6
136 32 16
137 32 8
138 32 1.6
139 32 1.6
140 32 1.6
141 32 0.2
142 33 32
143 33 8
144 33 1.6
145 33 1.6
146 33 1.6
147 33 1.6
148 33 0.6
149 34 32
150 34 8
151 34 1.6
152 34 1.6
153 34 1.6
154 34 1.2
155 35 32
156 35 1.6
157 35 1.4
158 36 32
159 36 1
160 37 32
161 37 8
162 37 1.6
163 37 1.6
164 37 1.6
165 37 1.6
166 37 0.6
167 38 32
168 38 8
169 38 1.6
170 38 1.6
171 38 1.6
172 38 1.6
173 38 0.6
174 39 16
175 39 8
176 39 1.6
177 39 1.6
178 39 1.6
179 39 1.6
180 39 0.6
181 40 32
182 40 1.6
183 40 1.6
184 40 1.6
185 40 0.2
186 41 32
187 41 8
188 41 1.6
189 41 1.4
190 42 32
191 42 8
192 42 1.6
193 42 1.6
194 42 1.6
195 42 1.2
196 43 16
197 43 8
198 43 1.6
199 43 1.4
200 44 32
201 44 8
202 44 1
203 45 32
204 45 1.6
205 45 1.6
206 45 1.6
207 45 1.2
208 46 32
209 46 8
210 47 16
211 47 8
212 47 1
213 48 32
214 48 8
215 48 1.6
216 48 1.6
217 48 0.8
218 49 32
219 50 16
220 50 8
221 50 1.6
222 50 1.6
223 50 1.6
224 50 0.2
225 51 16
226 51 1.6
227 51 1.6
228 51 1.6
229 51 1.6
230 51 0.6
231 52 32
232 52 8
233 52 1.6
234 52 1.6
235 52 1.6
236 52 1.6
237 52 0.6
238 53 16
239 53 8
240 53 1.6
241 53 0.4
242 54 16
243 55 16
244 55 1.6
245 55 1.6
246 55 1.6
247 55 0.2
248 56 32
249 56 8
250 56 1.6
251 56 1.6
252 56 1.6
253 56 1.6
254 56 0.6
255 57 16
256 57 1.6
257 57 1.6
258 57 0.8
259 58 16
260 58 8
261 58 1.6
262 58 1.6
263 58 1.6
264 58 0.2
265 59 16
266 59 1.6
267 59 1.6
268 59 0.8
269 60 32
270 60 8
271 60 1.6
272 60 1.6
273 60 1.6
274 60 0.2
275 61 16
276 62 32
277 62 8
278 63 16
279 63 1.6
280 63 1.4
281 64 32
282 64 1.6
283 64 1.6
284 64 1.6
285 64 1.2
286 65 16
287 65 1.6
288 65 1.4
289 66 32
290 66 8
291 66 1.6
292 66 1.6
293 66 1.6
294 66 1.6
295 66 0.6
296 67 16
297 67 1.6
298 67 0.4
299 68 16
300 68 8
301 68 1.6
302 68 1.6
303 68 0.8
304 69 16
305 69 1.6
306 69 1.6
307 69 1.6
308 69 1.2
309 70 32
310 70 8
311 70 1.6
312 70 1.6
313 70 1.6
314 70 1.2
315 71 16
316 71 1.6
317 71 0.4
318 72 16
319 73 16
320 73 1.6
321 73 1.6
322 73 1.6
323 73 1.6
324 73 0.6
325 74 32
326 74 8
327 75 16
328 75 1.6
329 75 0.4
PICKUP_SECTION
NODE_SECTION
40 40

22 22

36 26

21 45

45 35

55 20

33 34

50 50

55 45

26 59

40 66

55 65

35 51

62 35

62 57

62 24

21 36

33 44

 9 56

62 48

66 14

44 13

26 13

11 28

 7 43

17 64

41 46

55 34

35 16

52 26

43 26

31 76

22 53

26 29

50 40

55 50

54 10

60 15

47 66

30 60

30 50

12 17

15 14

16 19

21 48

50 30

51 42

50 15

48 21

12 38

15 56

29 39

54 38

55 57

67 41

10 70

 6 25

65 27

40 60

70 64

64  4

36  6

30 20

20 30

15  5

50 70

57 72

45 42

38 33

50  4

66  8

59  5

35 60

27 24

40 20

40 37
DISTANCE_SECTION
DEPOT_SECTION
0
EOF